true false true
presolving:
presolving (0 rounds: 0 fast, 0 medium, 0 exhaustive):
 0 deleted vars, 0 deleted constraints, 0 added constraints, 0 tightened bounds, 0 added holes, 0 changed sides, 0 changed coefficients
 0 implications, 0 cliques
presolved problem has 67 variables (67 bin, 0 int, 0 impl, 0 cont) and 56 constraints
     56 constraints of type <linear>
transformed objective value is always integral (scale: 1)
Presolving Time: 0.00

 time | node  | left  |LP iter|LP it/n|mem/heur|mdpt |vars |cons |rows |cuts |sepa|confs|strbr|  dualbound   | primalbound  |  gap   | compl. 
p 0.0s|     1 |     0 |     0 |     - |shiftand|   0 |  67 |  56 |  56 |   0 |  0 |   0 |   0 |      --      | 1.100000e+01 |    Inf | unknown
 time | node  | left  |LP iter|LP it/n|mem/heur|mdpt |vars |cons |rows |cuts |sepa|confs|strbr|  dualbound   | primalbound  |  gap   | compl. 
  0.5s|     1 |     0 |    56 |     - |  5374k |   0 |1435 |  56 |  56 |   0 |  0 |   0 |   0 |-2.340000e+02 | 1.100000e+01 |    Inf | unknown
 time | node  | left  |LP iter|LP it/n|mem/heur|mdpt |vars |cons |rows |cuts |sepa|confs|strbr|  dualbound   | primalbound  |  gap   | compl. 
  307s|     1 |     0 |   603 |     - |  9011k |   0 |2739 |  56 |  56 |   0 |  0 |   0 |   0 | 9.000000e+00 | 1.100000e+01 |  22.22%| unknown
 time | node  | left  |LP iter|LP it/n|mem/heur|mdpt |vars |cons |rows |cuts |sepa|confs|strbr|  dualbound   | primalbound  |  gap   | compl. 
o 307s|     1 |     0 |  1531 |     - |feaspump|   0 |2739 |  56 |  56 |   0 |  0 |   0 |   0 | 9.000000e+00 | 1.000000e+01 |  11.11%| unknown
 time | node  | left  |LP iter|LP it/n|mem/heur|mdpt |vars |cons |rows |cuts |sepa|confs|strbr|  dualbound   | primalbound  |  gap   | compl. 
  307s|     1 |     2 |  1531 |     - |  9748k |   0 |2739 |  56 |  56 |   0 |  1 |   0 |   0 | 9.000000e+00 | 1.000000e+01 |  11.11%| unknown
 time | node  | left  |LP iter|LP it/n|mem/heur|mdpt |vars |cons |rows |cuts |sepa|confs|strbr|  dualbound   | primalbound  |  gap   | compl. 
  308s|     2 |     3 |  1550 |  19.0 |  9917k |   1 |2739 |  56 |  56 |   0 |  1 |   0 |   0 | 9.000000e+00 | 1.000000e+01 |  11.11%| unknown
 time | node  | left  |LP iter|LP it/n|mem/heur|mdpt |vars |cons |rows |cuts |sepa|confs|strbr|  dualbound   | primalbound  |  gap   | compl. 
  308s|     3 |     4 |  1563 |  16.0 |  9925k |   2 |2739 |  56 |  56 |   0 |  1 |   0 |   0 | 9.000000e+00 | 1.000000e+01 |  11.11%| unknown
 time | node  | left  |LP iter|LP it/n|mem/heur|mdpt |vars |cons |rows |cuts |sepa|confs|strbr|  dualbound   | primalbound  |  gap   | compl. 
  308s|     4 |     5 |  1586 |  18.3 |    10M |   3 |2739 |  56 |  56 |   0 |  1 |   0 |   0 | 9.000000e+00 | 1.000000e+01 |  11.11%| unknown
 time | node  | left  |LP iter|LP it/n|mem/heur|mdpt |vars |cons |rows |cuts |sepa|confs|strbr|  dualbound   | primalbound  |  gap   | compl. 
  308s|     5 |     6 |  1644 |  28.2 |    10M |   3 |2739 |  56 |  56 |   0 |  1 |   0 |   0 | 9.000000e+00 | 1.000000e+01 |  11.11%| unknown
 time | node  | left  |LP iter|LP it/n|mem/heur|mdpt |vars |cons |rows |cuts |sepa|confs|strbr|  dualbound   | primalbound  |  gap   | compl. 
  308s|     6 |     7 |  1657 |  25.2 |    10M |   4 |2739 |  56 |  56 |   0 |  1 |   0 |   0 | 9.000000e+00 | 1.000000e+01 |  11.11%| unknown
 time | node  | left  |LP iter|LP it/n|mem/heur|mdpt |vars |cons |rows |cuts |sepa|confs|strbr|  dualbound   | primalbound  |  gap   | compl. 
  308s|     7 |     8 |  1691 |  26.7 |    10M |   5 |2739 |  56 |  56 |   0 |  1 |   0 |   0 | 9.000000e+00 | 1.000000e+01 |  11.11%| unknown
 time | node  | left  |LP iter|LP it/n|mem/heur|mdpt |vars |cons |rows |cuts |sepa|confs|strbr|  dualbound   | primalbound  |  gap   | compl. 
  308s|     8 |     9 |  2450 | 131.3 |    11M |   5 |2739 |  56 |  56 |   0 |  1 |   0 |   0 | 9.000000e+00 | 1.000000e+01 |  11.11%| unknown
 time | node  | left  |LP iter|LP it/n|mem/heur|mdpt |vars |cons |rows |cuts |sepa|confs|strbr|  dualbound   | primalbound  |  gap   | compl. 
  308s|     9 |    10 |  2541 | 126.2 |    11M |   5 |2739 |  56 |  56 |   0 |  1 |   0 |   0 | 9.000000e+00 | 1.000000e+01 |  11.11%| unknown
 time | node  | left  |LP iter|LP it/n|mem/heur|mdpt |vars |cons |rows |cuts |sepa|confs|strbr|  dualbound   | primalbound  |  gap   | compl. 
  309s|    10 |    11 |  2573 | 115.8 |    11M |   5 |2739 |  56 |  56 |   0 |  1 |   0 |   0 | 9.000000e+00 | 1.000000e+01 |  11.11%| unknown
 time | node  | left  |LP iter|LP it/n|mem/heur|mdpt |vars |cons |rows |cuts |sepa|confs|strbr|  dualbound   | primalbound  |  gap   | compl. 
  309s|    11 |    12 |  2590 | 105.9 |    11M |   6 |2739 |  56 |  56 |   0 |  1 |   0 |   0 | 9.000000e+00 | 1.000000e+01 |  11.11%| unknown
 time | node  | left  |LP iter|LP it/n|mem/heur|mdpt |vars |cons |rows |cuts |sepa|confs|strbr|  dualbound   | primalbound  |  gap   | compl. 
  309s|    12 |    13 |  2636 | 100.5 |    11M |   6 |2739 |  56 |  56 |   0 |  1 |   0 |   0 | 9.000000e+00 | 1.000000e+01 |  11.11%| unknown
 time | node  | left  |LP iter|LP it/n|mem/heur|mdpt |vars |cons |rows |cuts |sepa|confs|strbr|  dualbound   | primalbound  |  gap   | compl. 
  309s|    13 |    14 |  2698 |  97.2 |    11M |   7 |2739 |  56 |  56 |   0 |  1 |   0 |   0 | 9.000000e+00 | 1.000000e+01 |  11.11%| unknown
 time | node  | left  |LP iter|LP it/n|mem/heur|mdpt |vars |cons |rows |cuts |sepa|confs|strbr|  dualbound   | primalbound  |  gap   | compl. 
  309s|    14 |    15 |  2706 |  90.4 |    11M |   8 |2739 |  56 |  56 |   0 |  1 |   0 |   0 | 9.000000e+00 | 1.000000e+01 |  11.11%| unknown
 time | node  | left  |LP iter|LP it/n|mem/heur|mdpt |vars |cons |rows |cuts |sepa|confs|strbr|  dualbound   | primalbound  |  gap   | compl. 
  309s|    15 |    16 |  2721 |  85.0 |    11M |   9 |2739 |  56 |  56 |   0 |  1 |   0 |   0 | 9.000000e+00 | 1.000000e+01 |  11.11%| unknown
 time | node  | left  |LP iter|LP it/n|mem/heur|mdpt |vars |cons |rows |cuts |sepa|confs|strbr|  dualbound   | primalbound  |  gap   | compl. 
  310s|    16 |    17 |  2820 |  85.9 |    11M |   9 |2801 |  56 |  56 |   0 |  1 |   0 |   0 | 9.000000e+00 | 1.000000e+01 |  11.11%| unknown
 time | node  | left  |LP iter|LP it/n|mem/heur|mdpt |vars |cons |rows |cuts |sepa|confs|strbr|  dualbound   | primalbound  |  gap   | compl. 
  310s|    17 |    18 |  2853 |  82.6 |    11M |  10 |2801 |  56 |  56 |   0 |  1 |   0 |   0 | 9.000000e+00 | 1.000000e+01 |  11.11%| unknown
 time | node  | left  |LP iter|LP it/n|mem/heur|mdpt |vars |cons |rows |cuts |sepa|confs|strbr|  dualbound   | primalbound  |  gap   | compl. 
  310s|    18 |    19 |  2858 |  78.1 |    11M |  11 |2801 |  56 |  56 |   0 |  1 |   0 |   0 | 9.000000e+00 | 1.000000e+01 |  11.11%| unknown
 time | node  | left  |LP iter|LP it/n|mem/heur|mdpt |vars |cons |rows |cuts |sepa|confs|strbr|  dualbound   | primalbound  |  gap   | compl. 
  311s|    19 |    20 |  2866 |  74.2 |    11M |  12 |2801 |  56 |  56 |   0 |  1 |   0 |   0 | 9.000000e+00 | 1.000000e+01 |  11.11%| unknown
 time | node  | left  |LP iter|LP it/n|mem/heur|mdpt |vars |cons |rows |cuts |sepa|confs|strbr|  dualbound   | primalbound  |  gap   | compl. 
  311s|    20 |    21 |  2913 |  72.7 |    11M |  13 |2801 |  56 |  56 |   0 |  1 |   0 |   0 | 9.000000e+00 | 1.000000e+01 |  11.11%| unknown
 time | node  | left  |LP iter|LP it/n|mem/heur|mdpt |vars |cons |rows |cuts |sepa|confs|strbr|  dualbound   | primalbound  |  gap   | compl. 
  311s|    21 |    22 |  3058 |  76.3 |    11M |  14 |2801 |  56 |  56 |   0 |  1 |   0 |   0 | 9.000000e+00 | 1.000000e+01 |  11.11%| unknown
 time | node  | left  |LP iter|LP it/n|mem/heur|mdpt |vars |cons |rows |cuts |sepa|confs|strbr|  dualbound   | primalbound  |  gap   | compl. 
  311s|    22 |    23 |  3078 |  73.7 |    11M |  14 |2801 |  56 |  56 |   0 |  1 |   0 |   0 | 9.000000e+00 | 1.000000e+01 |  11.11%| unknown
 time | node  | left  |LP iter|LP it/n|mem/heur|mdpt |vars |cons |rows |cuts |sepa|confs|strbr|  dualbound   | primalbound  |  gap   | compl. 
  312s|    23 |    24 |  3400 |  85.0 |    12M |  14 |2801 |  56 |  56 |   0 |  1 |   0 |   0 | 9.000000e+00 | 1.000000e+01 |  11.11%| unknown
 time | node  | left  |LP iter|LP it/n|mem/heur|mdpt |vars |cons |rows |cuts |sepa|confs|strbr|  dualbound   | primalbound  |  gap   | compl. 
  312s|    24 |    25 |  3445 |  83.2 |    12M |  14 |2801 |  56 |  56 |   0 |  1 |   0 |   0 | 9.000000e+00 | 1.000000e+01 |  11.11%| unknown
 time | node  | left  |LP iter|LP it/n|mem/heur|mdpt |vars |cons |rows |cuts |sepa|confs|strbr|  dualbound   | primalbound  |  gap   | compl. 
  312s|    25 |    26 |  3453 |  80.1 |    12M |  14 |2801 |  56 |  56 |   0 |  1 |   0 |   0 | 9.000000e+00 | 1.000000e+01 |  11.11%| unknown
 time | node  | left  |LP iter|LP it/n|mem/heur|mdpt |vars |cons |rows |cuts |sepa|confs|strbr|  dualbound   | primalbound  |  gap   | compl. 
  313s|    26 |    27 |  3869 |  93.5 |    12M |  14 |2801 |  56 |  56 |   0 |  1 |   0 |   0 | 9.000000e+00 | 1.000000e+01 |  11.11%| unknown
 time | node  | left  |LP iter|LP it/n|mem/heur|mdpt |vars |cons |rows |cuts |sepa|confs|strbr|  dualbound   | primalbound  |  gap   | compl. 
  313s|    27 |    28 |  3893 |  90.8 |    12M |  14 |2801 |  56 |  56 |   0 |  1 |   0 |   0 | 9.000000e+00 | 1.000000e+01 |  11.11%| unknown
 time | node  | left  |LP iter|LP it/n|mem/heur|mdpt |vars |cons |rows |cuts |sepa|confs|strbr|  dualbound   | primalbound  |  gap   | compl. 
  313s|    28 |    29 |  3919 |  88.4 |    12M |  14 |2801 |  56 |  56 |   0 |  1 |   0 |   0 | 9.000000e+00 | 1.000000e+01 |  11.11%| unknown
 time | node  | left  |LP iter|LP it/n|mem/heur|mdpt |vars |cons |rows |cuts |sepa|confs|strbr|  dualbound   | primalbound  |  gap   | compl. 
  314s|    29 |    30 |  3931 |  85.7 |    12M |  14 |2801 |  56 |  56 |   0 |  1 |   0 |   0 | 9.000000e+00 | 1.000000e+01 |  11.11%| unknown
 time | node  | left  |LP iter|LP it/n|mem/heur|mdpt |vars |cons |rows |cuts |sepa|confs|strbr|  dualbound   | primalbound  |  gap   | compl. 
  314s|    30 |    31 |  3965 |  83.9 |    12M |  14 |2801 |  56 |  56 |   0 |  1 |   0 |   0 | 9.000000e+00 | 1.000000e+01 |  11.11%| unknown
 time | node  | left  |LP iter|LP it/n|mem/heur|mdpt |vars |cons |rows |cuts |sepa|confs|strbr|  dualbound   | primalbound  |  gap   | compl. 
  314s|    31 |    32 |  4216 |  89.5 |    12M |  15 |2801 |  56 |  56 |   0 |  1 |   0 |   0 | 9.000000e+00 | 1.000000e+01 |  11.11%| unknown
 time | node  | left  |LP iter|LP it/n|mem/heur|mdpt |vars |cons |rows |cuts |sepa|confs|strbr|  dualbound   | primalbound  |  gap   | compl. 
  314s|    32 |    33 |  4237 |  87.3 |    12M |  15 |2801 |  56 |  56 |   0 |  1 |   0 |   0 | 9.000000e+00 | 1.000000e+01 |  11.11%| unknown
 time | node  | left  |LP iter|LP it/n|mem/heur|mdpt |vars |cons |rows |cuts |sepa|confs|strbr|  dualbound   | primalbound  |  gap   | compl. 
  315s|    33 |    34 |  4455 |  91.4 |    12M |  15 |2801 |  56 |  56 |   0 |  1 |   0 |   0 | 9.000000e+00 | 1.000000e+01 |  11.11%| unknown
 time | node  | left  |LP iter|LP it/n|mem/heur|mdpt |vars |cons |rows |cuts |sepa|confs|strbr|  dualbound   | primalbound  |  gap   | compl. 
  315s|    34 |    35 |  4528 |  90.8 |    12M |  15 |2801 |  56 |  56 |   0 |  1 |   0 |   0 | 9.000000e+00 | 1.000000e+01 |  11.11%| unknown
 time | node  | left  |LP iter|LP it/n|mem/heur|mdpt |vars |cons |rows |cuts |sepa|confs|strbr|  dualbound   | primalbound  |  gap   | compl. 
  315s|    35 |    36 |  4556 |  89.0 |    12M |  15 |2801 |  56 |  56 |   0 |  1 |   0 |   0 | 9.000000e+00 | 1.000000e+01 |  11.11%| unknown
 time | node  | left  |LP iter|LP it/n|mem/heur|mdpt |vars |cons |rows |cuts |sepa|confs|strbr|  dualbound   | primalbound  |  gap   | compl. 
  316s|    36 |    37 |  4574 |  86.9 |    12M |  15 |2801 |  56 |  56 |   0 |  1 |   0 |   0 | 9.000000e+00 | 1.000000e+01 |  11.11%| unknown
 time | node  | left  |LP iter|LP it/n|mem/heur|mdpt |vars |cons |rows |cuts |sepa|confs|strbr|  dualbound   | primalbound  |  gap   | compl. 
  316s|    37 |    38 |  4815 |  91.2 |    12M |  15 |2801 |  56 |  56 |   0 |  1 |   0 |   0 | 9.000000e+00 | 1.000000e+01 |  11.11%| unknown
 time | node  | left  |LP iter|LP it/n|mem/heur|mdpt |vars |cons |rows |cuts |sepa|confs|strbr|  dualbound   | primalbound  |  gap   | compl. 
  316s|    38 |    39 |  4841 |  89.5 |    12M |  15 |2801 |  56 |  56 |   0 |  1 |   0 |   0 | 9.000000e+00 | 1.000000e+01 |  11.11%| unknown
 time | node  | left  |LP iter|LP it/n|mem/heur|mdpt |vars |cons |rows |cuts |sepa|confs|strbr|  dualbound   | primalbound  |  gap   | compl. 
  317s|    39 |    40 |  5180 |  96.0 |    12M |  15 |2892 |  56 |  56 |   0 |  1 |   0 |   0 | 9.000000e+00 | 1.000000e+01 |  11.11%| unknown
 time | node  | left  |LP iter|LP it/n|mem/heur|mdpt |vars |cons |rows |cuts |sepa|confs|strbr|  dualbound   | primalbound  |  gap   | compl. 
  317s|    40 |    41 |  5344 |  97.8 |    12M |  15 |2935 |  56 |  56 |   0 |  1 |   0 |   0 | 9.000000e+00 | 1.000000e+01 |  11.11%| unknown
 time | node  | left  |LP iter|LP it/n|mem/heur|mdpt |vars |cons |rows |cuts |sepa|confs|strbr|  dualbound   | primalbound  |  gap   | compl. 
  317s|    41 |    42 |  5714 | 104.6 |    12M |  15 |2935 |  56 |  56 |   0 |  1 |   0 |   0 | 9.000000e+00 | 1.000000e+01 |  11.11%| unknown
 time | node  | left  |LP iter|LP it/n|mem/heur|mdpt |vars |cons |rows |cuts |sepa|confs|strbr|  dualbound   | primalbound  |  gap   | compl. 
  318s|    42 |    43 |  5805 | 104.2 |    12M |  15 |2935 |  56 |  56 |   0 |  1 |   0 |   0 | 9.000000e+00 | 1.000000e+01 |  11.11%| unknown
 time | node  | left  |LP iter|LP it/n|mem/heur|mdpt |vars |cons |rows |cuts |sepa|confs|strbr|  dualbound   | primalbound  |  gap   | compl. 
  318s|    43 |    44 |  6027 | 107.0 |    12M |  15 |2935 |  56 |  56 |   0 |  1 |   0 |   0 | 9.000000e+00 | 1.000000e+01 |  11.11%| unknown
 time | node  | left  |LP iter|LP it/n|mem/heur|mdpt |vars |cons |rows |cuts |sepa|confs|strbr|  dualbound   | primalbound  |  gap   | compl. 
  318s|    44 |    45 |  6065 | 105.4 |    12M |  15 |2935 |  56 |  56 |   0 |  1 |   0 |   0 | 9.000000e+00 | 1.000000e+01 |  11.11%| unknown
 time | node  | left  |LP iter|LP it/n|mem/heur|mdpt |vars |cons |rows |cuts |sepa|confs|strbr|  dualbound   | primalbound  |  gap   | compl. 
  318s|    45 |    46 |  6083 | 103.5 |    12M |  15 |2935 |  56 |  56 |   0 |  1 |   0 |   0 | 9.000000e+00 | 1.000000e+01 |  11.11%| unknown
 time | node  | left  |LP iter|LP it/n|mem/heur|mdpt |vars |cons |rows |cuts |sepa|confs|strbr|  dualbound   | primalbound  |  gap   | compl. 
  319s|    46 |    47 |  6102 | 101.6 |    12M |  15 |2935 |  56 |  56 |   0 |  1 |   0 |   0 | 9.000000e+00 | 1.000000e+01 |  11.11%| unknown
 time | node  | left  |LP iter|LP it/n|mem/heur|mdpt |vars |cons |rows |cuts |sepa|confs|strbr|  dualbound   | primalbound  |  gap   | compl. 
  319s|    47 |    48 |  6120 |  99.8 |    12M |  16 |2935 |  56 |  56 |   0 |  1 |   0 |   0 | 9.000000e+00 | 1.000000e+01 |  11.11%| unknown
 time | node  | left  |LP iter|LP it/n|mem/heur|mdpt |vars |cons |rows |cuts |sepa|confs|strbr|  dualbound   | primalbound  |  gap   | compl. 
  319s|    48 |    49 |  6137 |  98.0 |    12M |  17 |2935 |  56 |  56 |   0 |  1 |   0 |   0 | 9.000000e+00 | 1.000000e+01 |  11.11%| unknown
 time | node  | left  |LP iter|LP it/n|mem/heur|mdpt |vars |cons |rows |cuts |sepa|confs|strbr|  dualbound   | primalbound  |  gap   | compl. 
  320s|    49 |    50 |  6159 |  96.4 |    12M |  18 |2935 |  56 |  56 |   0 |  1 |   0 |   0 | 9.000000e+00 | 1.000000e+01 |  11.11%| unknown
 time | node  | left  |LP iter|LP it/n|mem/heur|mdpt |vars |cons |rows |cuts |sepa|confs|strbr|  dualbound   | primalbound  |  gap   | compl. 
  320s|    50 |    51 |  6160 |  94.5 |    12M |  19 |2935 |  56 |  56 |   0 |  1 |   0 |   0 | 9.000000e+00 | 1.000000e+01 |  11.11%| unknown
 time | node  | left  |LP iter|LP it/n|mem/heur|mdpt |vars |cons |rows |cuts |sepa|confs|strbr|  dualbound   | primalbound  |  gap   | compl. 
  320s|    51 |    52 |  6175 |  92.9 |    12M |  20 |2935 |  56 |  56 |   0 |  1 |   0 |   0 | 9.000000e+00 | 1.000000e+01 |  11.11%| unknown
 time | node  | left  |LP iter|LP it/n|mem/heur|mdpt |vars |cons |rows |cuts |sepa|confs|strbr|  dualbound   | primalbound  |  gap   | compl. 
  321s|    52 |    53 |  6323 |  94.0 |    12M |  21 |2935 |  56 |  56 |   0 |  1 |   0 |   0 | 9.000000e+00 | 1.000000e+01 |  11.11%| unknown
 time | node  | left  |LP iter|LP it/n|mem/heur|mdpt |vars |cons |rows |cuts |sepa|confs|strbr|  dualbound   | primalbound  |  gap   | compl. 
  321s|    53 |    54 |  6470 |  95.0 |    13M |  21 |3014 |  56 |  56 |   0 |  1 |   0 |   0 | 9.000000e+00 | 1.000000e+01 |  11.11%| unknown
 time | node  | left  |LP iter|LP it/n|mem/heur|mdpt |vars |cons |rows |cuts |sepa|confs|strbr|  dualbound   | primalbound  |  gap   | compl. 
  322s|    54 |    55 |  6491 |  93.6 |    13M |  21 |3014 |  56 |  56 |   0 |  1 |   0 |   0 | 9.000000e+00 | 1.000000e+01 |  11.11%| unknown
 time | node  | left  |LP iter|LP it/n|mem/heur|mdpt |vars |cons |rows |cuts |sepa|confs|strbr|  dualbound   | primalbound  |  gap   | compl. 
  324s|    55 |    56 |  6583 |  93.6 |    13M |  21 |3216 |  56 |  56 |   0 |  1 |   0 |   0 | 9.000000e+00 | 1.000000e+01 |  11.11%| unknown
 time | node  | left  |LP iter|LP it/n|mem/heur|mdpt |vars |cons |rows |cuts |sepa|confs|strbr|  dualbound   | primalbound  |  gap   | compl. 
  324s|    56 |    57 |  6627 |  92.7 |    13M |  21 |3216 |  56 |  56 |   0 |  1 |   0 |   0 | 9.000000e+00 | 1.000000e+01 |  11.11%| unknown
 time | node  | left  |LP iter|LP it/n|mem/heur|mdpt |vars |cons |rows |cuts |sepa|confs|strbr|  dualbound   | primalbound  |  gap   | compl. 
  325s|    57 |    58 |  6678 |  91.9 |    14M |  22 |3216 |  56 |  56 |   0 |  1 |   0 |   0 | 9.000000e+00 | 1.000000e+01 |  11.11%| unknown
 time | node  | left  |LP iter|LP it/n|mem/heur|mdpt |vars |cons |rows |cuts |sepa|confs|strbr|  dualbound   | primalbound  |  gap   | compl. 
  326s|    58 |    59 |  6807 |  92.6 |    14M |  22 |3291 |  56 |  56 |   0 |  1 |   0 |   0 | 9.000000e+00 | 1.000000e+01 |  11.11%| unknown
 time | node  | left  |LP iter|LP it/n|mem/heur|mdpt |vars |cons |rows |cuts |sepa|confs|strbr|  dualbound   | primalbound  |  gap   | compl. 
  327s|    59 |    60 |  6819 |  91.2 |    14M |  22 |3291 |  56 |  56 |   0 |  1 |   0 |   0 | 9.000000e+00 | 1.000000e+01 |  11.11%| unknown
 time | node  | left  |LP iter|LP it/n|mem/heur|mdpt |vars |cons |rows |cuts |sepa|confs|strbr|  dualbound   | primalbound  |  gap   | compl. 
  327s|    60 |    61 |  6820 |  89.6 |    14M |  22 |3291 |  56 |  56 |   0 |  1 |   0 |   0 | 9.000000e+00 | 1.000000e+01 |  11.11%| unknown
 time | node  | left  |LP iter|LP it/n|mem/heur|mdpt |vars |cons |rows |cuts |sepa|confs|strbr|  dualbound   | primalbound  |  gap   | compl. 
  327s|    61 |    62 |  6837 |  88.4 |    14M |  22 |3291 |  56 |  56 |   0 |  1 |   0 |   0 | 9.000000e+00 | 1.000000e+01 |  11.11%| unknown
 time | node  | left  |LP iter|LP it/n|mem/heur|mdpt |vars |cons |rows |cuts |sepa|confs|strbr|  dualbound   | primalbound  |  gap   | compl. 
  328s|    62 |    63 |  6850 |  87.2 |    14M |  23 |3291 |  56 |  56 |   0 |  1 |   0 |   0 | 9.000000e+00 | 1.000000e+01 |  11.11%| unknown
 time | node  | left  |LP iter|LP it/n|mem/heur|mdpt |vars |cons |rows |cuts |sepa|confs|strbr|  dualbound   | primalbound  |  gap   | compl. 
  328s|    63 |    64 |  6864 |  86.0 |    14M |  24 |3291 |  56 |  56 |   0 |  1 |   0 |   0 | 9.000000e+00 | 1.000000e+01 |  11.11%| unknown
 time | node  | left  |LP iter|LP it/n|mem/heur|mdpt |vars |cons |rows |cuts |sepa|confs|strbr|  dualbound   | primalbound  |  gap   | compl. 
  329s|    64 |    65 |  6877 |  84.9 |    14M |  25 |3291 |  56 |  56 |   0 |  1 |   0 |   0 | 9.000000e+00 | 1.000000e+01 |  11.11%| unknown
 time | node  | left  |LP iter|LP it/n|mem/heur|mdpt |vars |cons |rows |cuts |sepa|confs|strbr|  dualbound   | primalbound  |  gap   | compl. 
  329s|    65 |    66 |  7118 |  87.3 |    14M |  26 |3291 |  56 |  56 |   0 |  1 |   0 |   0 | 9.000000e+00 | 1.000000e+01 |  11.11%| unknown
 time | node  | left  |LP iter|LP it/n|mem/heur|mdpt |vars |cons |rows |cuts |sepa|confs|strbr|  dualbound   | primalbound  |  gap   | compl. 
  330s|    66 |    67 |  7149 |  86.4 |    14M |  26 |3291 |  56 |  56 |   0 |  1 |   0 |   0 | 9.000000e+00 | 1.000000e+01 |  11.11%| unknown
 time | node  | left  |LP iter|LP it/n|mem/heur|mdpt |vars |cons |rows |cuts |sepa|confs|strbr|  dualbound   | primalbound  |  gap   | compl. 
  330s|    67 |    68 |  7155 |  85.2 |    14M |  26 |3291 |  56 |  56 |   0 |  1 |   0 |   0 | 9.000000e+00 | 1.000000e+01 |  11.11%| unknown
 time | node  | left  |LP iter|LP it/n|mem/heur|mdpt |vars |cons |rows |cuts |sepa|confs|strbr|  dualbound   | primalbound  |  gap   | compl. 
  331s|    68 |    69 |  7158 |  84.0 |    14M |  26 |3291 |  56 |  56 |   0 |  1 |   0 |   0 | 9.000000e+00 | 1.000000e+01 |  11.11%| unknown
 time | node  | left  |LP iter|LP it/n|mem/heur|mdpt |vars |cons |rows |cuts |sepa|confs|strbr|  dualbound   | primalbound  |  gap   | compl. 
  331s|    69 |    70 |  7165 |  82.9 |    14M |  27 |3291 |  56 |  56 |   0 |  1 |   0 |   0 | 9.000000e+00 | 1.000000e+01 |  11.11%| unknown
 time | node  | left  |LP iter|LP it/n|mem/heur|mdpt |vars |cons |rows |cuts |sepa|confs|strbr|  dualbound   | primalbound  |  gap   | compl. 
  333s|    70 |    69 |  7284 |  83.4 |    14M |  28 |3381 |  56 |  56 |   0 |  0 |   0 |   0 | 9.000000e+00 | 1.000000e+01 |  11.11%| unknown
 time | node  | left  |LP iter|LP it/n|mem/heur|mdpt |vars |cons |rows |cuts |sepa|confs|strbr|  dualbound   | primalbound  |  gap   | compl. 
  333s|    71 |    70 |  7312 |  82.6 |    14M |  28 |3381 |  56 |  56 |   0 |  1 |   0 |   0 | 9.000000e+00 | 1.000000e+01 |  11.11%| unknown
 time | node  | left  |LP iter|LP it/n|mem/heur|mdpt |vars |cons |rows |cuts |sepa|confs|strbr|  dualbound   | primalbound  |  gap   | compl. 
  335s|    72 |    69 |  7376 |  82.3 |    14M |  29 |3458 |  56 |  56 |   0 |  0 |   0 |   0 | 9.000000e+00 | 1.000000e+01 |  11.11%| unknown
 time | node  | left  |LP iter|LP it/n|mem/heur|mdpt |vars |cons |rows |cuts |sepa|confs|strbr|  dualbound   | primalbound  |  gap   | compl. 
  336s|    73 |    68 |  7401 |  81.5 |    14M |  29 |3459 |  56 |  56 |   0 |  0 |   0 |   0 | 9.000000e+00 | 1.000000e+01 |  11.11%| unknown
 time | node  | left  |LP iter|LP it/n|mem/heur|mdpt |vars |cons |rows |cuts |sepa|confs|strbr|  dualbound   | primalbound  |  gap   | compl. 
  337s|    74 |    67 |  7477 |  81.5 |    14M |  29 |3470 |  56 |  56 |   0 |  0 |   0 |   0 | 9.000000e+00 | 1.000000e+01 |  11.11%| unknown
 time | node  | left  |LP iter|LP it/n|mem/heur|mdpt |vars |cons |rows |cuts |sepa|confs|strbr|  dualbound   | primalbound  |  gap   | compl. 
  338s|    75 |    68 |  7505 |  80.7 |    14M |  29 |3470 |  56 |  56 |   0 |  1 |   0 |   0 | 9.000000e+00 | 1.000000e+01 |  11.11%| unknown
 time | node  | left  |LP iter|LP it/n|mem/heur|mdpt |vars |cons |rows |cuts |sepa|confs|strbr|  dualbound   | primalbound  |  gap   | compl. 
  338s|    76 |    69 |  7533 |  80.0 |    14M |  29 |3470 |  56 |  56 |   0 |  1 |   0 |   0 | 9.000000e+00 | 1.000000e+01 |  11.11%| unknown
 time | node  | left  |LP iter|LP it/n|mem/heur|mdpt |vars |cons |rows |cuts |sepa|confs|strbr|  dualbound   | primalbound  |  gap   | compl. 
  339s|    77 |    70 |  7537 |  79.0 |    14M |  29 |3470 |  56 |  56 |   0 |  1 |   0 |   0 | 9.000000e+00 | 1.000000e+01 |  11.11%| unknown
 time | node  | left  |LP iter|LP it/n|mem/heur|mdpt |vars |cons |rows |cuts |sepa|confs|strbr|  dualbound   | primalbound  |  gap   | compl. 
  339s|    78 |    71 |  7538 |  78.0 |    14M |  29 |3470 |  56 |  56 |   0 |  1 |   0 |   0 | 9.000000e+00 | 1.000000e+01 |  11.11%| unknown
 time | node  | left  |LP iter|LP it/n|mem/heur|mdpt |vars |cons |rows |cuts |sepa|confs|strbr|  dualbound   | primalbound  |  gap   | compl. 
  340s|    79 |    72 |  7615 |  78.0 |    14M |  29 |3470 |  56 |  56 |   0 |  1 |   0 |   0 | 9.000000e+00 | 1.000000e+01 |  11.11%| unknown
 time | node  | left  |LP iter|LP it/n|mem/heur|mdpt |vars |cons |rows |cuts |sepa|confs|strbr|  dualbound   | primalbound  |  gap   | compl. 
  340s|    80 |    73 |  7653 |  77.5 |    14M |  29 |3470 |  56 |  56 |   0 |  1 |   0 |   0 | 9.000000e+00 | 1.000000e+01 |  11.11%| unknown
 time | node  | left  |LP iter|LP it/n|mem/heur|mdpt |vars |cons |rows |cuts |sepa|confs|strbr|  dualbound   | primalbound  |  gap   | compl. 
r 341s|    81 |     0 |  7655 |  76.5 |simplero|  29 |3470 |  56 |  56 |   0 |  0 |   0 |   0 | 9.000000e+00 | 9.000000e+00 |   0.00%| 100.00%

SCIP Status        : problem is solved [optimal solution found]
Solving Time (sec) : 340.81
Solving Nodes      : 81
Primal Bound       : +9.00000000000000e+00 (6 solutions)
Dual Bound         : +9.00000000000000e+00
Gap                : 0.00 %
Running with parallel: True bidir: False symbreak: True
Number of Nodes:  56
47.346483236151606% holds
starting cheapest insertion heuristic
Heuristic without TSP improvement:  11
Heuristic without TSP improvement time:  0.1
Heuristic Sol:  11
Heuristic total time:  0.2
[[9, 44, 50, 4, 29, 3], [7, 37, 18, 31, 48, 55, 41], [10, 49, 0, 36, 27, 14, 51], [20, 19, 6, 13, 30, 5, 15], [33, 26, 8, 21, 34, 52, 17, 32], [38, 54], [39, 45, 16, 47, 23, 28], [53, 2, 42, 22], [46, 11, 40], [43, 25, 35], [24, 1, 12]]
Instance path:  /home/htc/mghannam/SCRATCH/lccp-rust/data/at84_ftv55.npcc
Timelimit:  7200
Heuristic without TSP improvement:  11
Heuristic without TSP improvement time:  0.1
Heuristic Sol:  11
Heuristic total time:  0.6
at 1 zero_duals: 45
Switching to elementary pricing
at1, LP obj: 11.0 n_added_paths: 1368
updated lowerbound from -1e+20 to -234
at 1 zero_duals: 19
at1, LP obj: 11.0 n_added_paths: 149
at 1 zero_duals: 14
at1, LP obj: 11.0 n_added_paths: 220
at 1 zero_duals: 11
at1, LP obj: 9.547882384677637 n_added_paths: 209
at 1 zero_duals: 7
Switching to elementary pricing
at1, LP obj: 8.879297916212638 n_added_paths: 650
at 1 zero_duals: 10
at1, LP obj: 8.29690048939641 n_added_paths: 26
at 1 zero_duals: 9
Switching to elementary pricing
at1, LP obj: 8.18338399189463 n_added_paths: 42
updated lowerbound from 1.0 to 8
at 1 zero_duals: 6
Switching to elementary pricing
at1, LP obj: 8.173322466721 n_added_paths: 8
updated lowerbound from 8.0 to 9
Gap too small = 0, stopping pricing with lb = 9
Gap too small = 0, stopping pricing with lb = 9
Gap too small = 0, stopping pricing with lb = 9
Gap too small = 0, stopping pricing with lb = 9
Gap too small = 0, stopping pricing with lb = 9
Gap too small = 0, stopping pricing with lb = 9
Gap too small = 0, stopping pricing with lb = 9
Gap too small = 0, stopping pricing with lb = 9
Gap too small = 0, stopping pricing with lb = 9
Gap too small = 0, stopping pricing with lb = 9
Gap too small = 0, stopping pricing with lb = 9
Gap too small = 0, stopping pricing with lb = 9
Gap too small = 0, stopping pricing with lb = 9
Gap too small = 0, stopping pricing with lb = 9
Gap too small = 0, stopping pricing with lb = 9
at 29 zero_duals: 9
at29, LP obj: 9.060449228858296 n_added_paths: 62
Gap too small = 0, stopping pricing with lb = 9
Gap too small = 0, stopping pricing with lb = 9
Gap too small = 0, stopping pricing with lb = 9
Gap too small = 0, stopping pricing with lb = 9
Gap too small = 0, stopping pricing with lb = 9
Gap too small = 0, stopping pricing with lb = 9
Gap too small = 0, stopping pricing with lb = 9
Gap too small = 0, stopping pricing with lb = 9
Gap too small = 0, stopping pricing with lb = 9
Gap too small = 0, stopping pricing with lb = 9
Gap too small = 0, stopping pricing with lb = 9
Gap too small = 0, stopping pricing with lb = 9
Gap too small = 0, stopping pricing with lb = 9
Gap too small = 0, stopping pricing with lb = 9
Gap too small = 0, stopping pricing with lb = 9
Gap too small = 0, stopping pricing with lb = 9
Gap too small = 0, stopping pricing with lb = 9
Gap too small = 0, stopping pricing with lb = 9
Gap too small = 0, stopping pricing with lb = 9
Gap too small = 0, stopping pricing with lb = 9
Gap too small = 0, stopping pricing with lb = 9
Gap too small = 0, stopping pricing with lb = 9
Gap too small = 0, stopping pricing with lb = 9
at 76 zero_duals: 18
at76, LP obj: 9.20135746606335 n_added_paths: 91
Gap too small = 0, stopping pricing with lb = 9
at 31 zero_duals: 10
at31, LP obj: 9.004511278195489 n_added_paths: 43
Gap too small = 0, stopping pricing with lb = 9
Gap too small = 0, stopping pricing with lb = 9
Gap too small = 0, stopping pricing with lb = 9
Gap too small = 0, stopping pricing with lb = 9
Gap too small = 0, stopping pricing with lb = 9
Gap too small = 0, stopping pricing with lb = 9
Gap too small = 0, stopping pricing with lb = 9
Gap too small = 0, stopping pricing with lb = 9
Gap too small = 0, stopping pricing with lb = 9
Gap too small = 0, stopping pricing with lb = 9
Gap too small = 0, stopping pricing with lb = 9
Gap too small = 0, stopping pricing with lb = 9
Gap too small = 0, stopping pricing with lb = 9
at 97 zero_duals: 17
at97, LP obj: 9.921875 n_added_paths: 79
Gap too small = 0, stopping pricing with lb = 9
Gap too small = 0, stopping pricing with lb = 9
at 108 zero_duals: 10
Switching to elementary pricing
at108, LP obj: 9.14102564102564 n_added_paths: 202
Gap too small = 0, stopping pricing with lb = 9
Gap too small = 0, stopping pricing with lb = 9
Gap too small = 0, stopping pricing with lb = 9
at 107 zero_duals: 16
Switching to elementary pricing
at107, LP obj: 9.25 n_added_paths: 75
Gap too small = 0, stopping pricing with lb = 9
Gap too small = 0, stopping pricing with lb = 9
Gap too small = 0, stopping pricing with lb = 9
Gap too small = 0, stopping pricing with lb = 9
Gap too small = 0, stopping pricing with lb = 9
Gap too small = 0, stopping pricing with lb = 9
Gap too small = 0, stopping pricing with lb = 9
Gap too small = 0, stopping pricing with lb = 9
Gap too small = 0, stopping pricing with lb = 9
Gap too small = 0, stopping pricing with lb = 9
Gap too small = 0, stopping pricing with lb = 9
Gap too small = 0, stopping pricing with lb = 9
at 138 zero_duals: 19
Switching to elementary pricing
at138, LP obj: 9.166666666666668 n_added_paths: 24
at 138 zero_duals: 14
Switching to elementary pricing
at138, LP obj: 9.100000000000001 n_added_paths: 66
at 138 zero_duals: 6
Switching to elementary pricing
at138, LP obj: 9.038461538461538 n_added_paths: 0
updated lowerbound from 9.0 to 10
Gap too small = 0, stopping pricing with lb = 9
at 140 zero_duals: 19
Switching to elementary pricing
at140, LP obj: 9.166666666666666 n_added_paths: 73
at 140 zero_duals: 13
Switching to elementary pricing
at140, LP obj: 9.055555555555555 n_added_paths: 4
at 140 zero_duals: 17
Switching to elementary pricing
at140, LP obj: 9.055555555555555 n_added_paths: 0
updated lowerbound from 9.0 to 10
at 141 zero_duals: 12
Switching to elementary pricing
at141, LP obj: 9.071428571428571 n_added_paths: 1
updated lowerbound from 9.0 to 10
at 137 zero_duals: 9
Switching to elementary pricing
at137, LP obj: 9.304347826086957 n_added_paths: 10
at 137 zero_duals: 11
Switching to elementary pricing
at137, LP obj: 9.282527881040892 n_added_paths: 1
updated lowerbound from 9.0 to 10
Gap too small = 0, stopping pricing with lb = 9
Gap too small = 0, stopping pricing with lb = 9
Gap too small = 0, stopping pricing with lb = 9
Gap too small = 0, stopping pricing with lb = 9
Gap too small = 0, stopping pricing with lb = 9
Gap too small = 0, stopping pricing with lb = 9
Gap too small = 0, stopping pricing with lb = 9
Best solution found:
[54, 49, 22, 11, 30, 54] 1.0 0.9999999999999999
checking cycle [54, 49, 22, 11, 30, 54]
[54, 49, 22, 11, 30, 54] 225 200
[53, 29, 50, 42, 2, 53] 1.0 0.9999999999999998
checking cycle [53, 29, 50, 42, 2, 53]
[53, 29, 50, 42, 2, 53] 230 229
[24, 12, 4, 9, 3, 24] 1.0 1.0
checking cycle [24, 12, 4, 9, 3, 24]
[24, 12, 4, 9, 3, 24] 306 305
[52, 1, 32, 43, 26, 33, 17, 52] 1.0 1.0
checking cycle [52, 1, 32, 43, 26, 33, 17, 52]
[52, 1, 32, 43, 26, 33, 17, 52] 232 197
[55, 41, 7, 37, 38, 48, 55] 1.0 1.0
checking cycle [55, 41, 7, 37, 38, 48, 55]
[55, 41, 7, 37, 38, 48, 55] 219 192
[46, 40, 20, 0, 15, 5, 13, 46] 1.0 1.0
checking cycle [46, 40, 20, 0, 15, 5, 13, 46]
[46, 40, 20, 0, 15, 5, 13, 46] 250 237
[51, 10, 44, 14, 36, 6, 19, 27, 51] 1.0 1.0
checking cycle [51, 10, 44, 14, 36, 6, 19, 27, 51]
[51, 10, 44, 14, 36, 6, 19, 27, 51] 236 224
[35, 8, 21, 34, 25, 18, 31, 35] 1.0 1.0
checking cycle [35, 8, 21, 34, 25, 18, 31, 35]
[35, 8, 21, 34, 25, 18, 31, 35] 263 262
[47, 39, 28, 45, 16, 23, 47] 1.0 1.0
checking cycle [47, 39, 28, 45, 16, 23, 47]
[47, 39, 28, 45, 16, 23, 47] 245 238
